GLPSOL: GLPK LP/MIP Solver, v4.65
Parameter(s) specified in the command line:
 --write C:\Users\LAB_C\AppData\Local\Temp\tmp6ghy_b1c.glpk.raw --wglp C:\Users\LAB_C\AppData\Local\Temp\tmpqf6t0lpl.glpk.glp
 --cpxlp C:\Users\LAB_C\AppData\Local\Temp\tmpyecdn7w2.pyomo.lp
Reading problem data from 'C:\Users\LAB_C\AppData\Local\Temp\tmpyecdn7w2.pyomo.lp'...
3773728 rows, 2520000 columns, 8807400 non-zeros
2520000 integer variables, none of which are binary
26428594 lines were read
Writing problem data to 'C:\Users\LAB_C\AppData\Local\Temp\tmpqf6t0lpl.glpk.glp'...
22654859 lines were written
GLPK Integer Optimizer, v4.65
3773728 rows, 2520000 columns, 8807400 non-zeros
2520000 integer variables, none of which are binary
Preprocessing...
2513728 rows, 2520000 columns, 7547400 non-zeros
2520000 integer variables, 12621 of which are binary
Scaling...
 A: min|aij| =  1.000e+00  max|aij| =  1.000e+00  ratio =  1.000e+00
Problem data seem to be well scaled
Constructing initial basis...
Size of triangular part is 2513728
Solving LP relaxation...
GLPK Simplex Optimizer, v4.65
2513728 rows, 2520000 columns, 7547400 non-zeros
*     0: obj =  -0.000000000e+00 inf =   0.000e+00 (1260000)
*    74: obj =  -0.000000000e+00 inf =   0.000e+00 (1260000)
*   148: obj =  -0.000000000e+00 inf =   0.000e+00 (1260000)
Perturbing LP to avoid stalling [199]...
*   220: obj =  -0.000000000e+00 inf =   0.000e+00 (1260000)
*   291: obj =  -0.000000000e+00 inf =   0.000e+00 (1260000)
*   361: obj =  -0.000000000e+00 inf =   0.000e+00 (1260000)
*   432: obj =  -0.000000000e+00 inf =   0.000e+00 (1260000)
*   503: obj =  -0.000000000e+00 inf =   0.000e+00 (1260000)
*   577: obj =  -0.000000000e+00 inf =   0.000e+00 (1260000)
*   650: obj =  -0.000000000e+00 inf =   0.000e+00 (1260000)
*   723: obj =  -0.000000000e+00 inf =   0.000e+00 (1260000)
*   797: obj =  -0.000000000e+00 inf =   0.000e+00 (1260000)
*   871: obj =  -0.000000000e+00 inf =   0.000e+00 (1260000)
*   944: obj =  -0.000000000e+00 inf =   0.000e+00 (1260000)
*  1015: obj =   1.600000000e+06 inf =   0.000e+00 (1248000)
*  1083: obj =   9.207396000e+06 inf =   0.000e+00 (600329)
*  1155: obj =   1.119840000e+07 inf =   0.000e+00 (396341)
*  1228: obj =   1.119840000e+07 inf =   0.000e+00 (396341)
*  1300: obj =   1.119840000e+07 inf =   0.000e+00 (396341)
*  1373: obj =   1.119840000e+07 inf =   0.000e+00 (396341)
*  1448: obj =   1.119840000e+07 inf =   0.000e+00 (396341)
*  1523: obj =   1.119840000e+07 inf =   0.000e+00 (396341)
*  1597: obj =   1.119840000e+07 inf =   0.000e+00 (552401)
*  1671: obj =   1.119840000e+07 inf =   0.000e+00 (552401)
*  1745: obj =   1.119840000e+07 inf =   0.000e+00 (552401)
*  1819: obj =   1.119840000e+07 inf =   0.000e+00 (552401)
*  1892: obj =   1.119840000e+07 inf =   0.000e+00 (552401)
*  1964: obj =   1.119840000e+07 inf =   0.000e+00 (552401)
*  2036: obj =   1.119840000e+07 inf =   0.000e+00 (552367)
*  2105: obj =   1.119840000e+07 inf =   0.000e+00 (552298)
*  2174: obj =   1.119840000e+07 inf =   0.000e+00 (552281)
*  2245: obj =   1.119840000e+07 inf =   0.000e+00 (504578)
*  2319: obj =   1.119840000e+07 inf =   0.000e+00 (504578)
*  2391: obj =   1.279600000e+07 inf =   0.000e+00 (444638)
*  2463: obj =   1.279600000e+07 inf =   0.000e+00 (492578)
*  2535: obj =   1.439200000e+07 inf =   0.000e+00 (372461)
*  2609: obj =   1.439200000e+07 inf =   0.000e+00 (372461)
*  2683: obj =   1.439200000e+07 inf =   0.000e+00 (372461)
*  2754: obj =   1.439200000e+07 inf =   0.000e+00 (372461)
*  2825: obj =   1.439200000e+07 inf =   0.000e+00 (372461)
*  2895: obj =   1.439200000e+07 inf =   0.000e+00 (372461)
*  2965: obj =   1.439200000e+07 inf =   0.000e+00 (372461)
*  3035: obj =   1.439200000e+07 inf =   0.000e+00 (372429)
*  3105: obj =   1.439200000e+07 inf =   0.000e+00 (372401)
*  3176: obj =   1.598504600e+07 inf =   0.000e+00 (169595)
*  3249: obj =   1.598504600e+07 inf =   0.000e+00 (169595)
*  3324: obj =   1.598504600e+07 inf =   0.000e+00 (169595)
*  3396: obj =   1.598504600e+07 inf =   0.000e+00 (169595)
*  3471: obj =   1.598504600e+07 inf =   0.000e+00 (169595)
*  3545: obj =   1.598504600e+07 inf =   0.000e+00 (169595)
*  3616: obj =   1.598504600e+07 inf =   0.000e+00 (169595)
*  3687: obj =   1.598504600e+07 inf =   0.000e+00 (169595)
*  3760: obj =   1.598504600e+07 inf =   0.000e+00 (169595)
*  3832: obj =   1.598504600e+07 inf =   0.000e+00 (169595)
*  3904: obj =   1.598504600e+07 inf =   0.000e+00 (169595)
*  3978: obj =   1.598504600e+07 inf =   0.000e+00 (169595)
*  4054: obj =   1.598504600e+07 inf =   0.000e+00 (169545)
*  4127: obj =   1.598504600e+07 inf =   0.000e+00 (205433)
*  4200: obj =   1.598504600e+07 inf =   0.000e+00 (205360)
*  4273: obj =   1.598504600e+07 inf =   0.000e+00 (205315)
*  4345: obj =   1.598504600e+07 inf =   0.000e+00 (205315)
*  4416: obj =   1.598504600e+07 inf =   0.000e+00 (205315)
*  4486: obj =   1.598504600e+07 inf =   0.000e+00 (205315)
*  4557: obj =   1.598504600e+07 inf =   0.000e+00 (205315)
*  4627: obj =   1.608023000e+07 inf =   0.000e+00 (133677)
*  4697: obj =   1.608023000e+07 inf =   0.000e+00 (133677)
*  4767: obj =   1.608023000e+07 inf =   0.000e+00 (133677)
*  4838: obj =   1.608023000e+07 inf =   0.000e+00 (133677)
*  4910: obj =   1.755648300e+07 inf =   0.000e+00 (78840)
*  4982: obj =   1.755648300e+07 inf =   0.000e+00 (78840)
*  5054: obj =   1.756043300e+07 inf =   0.000e+00 (151440)
*  5123: obj =   1.760950800e+07 inf =   0.000e+00 (182197)
*  5194: obj =   1.760950800e+07 inf =   0.000e+00 (182197)
*  5270: obj =   1.760950800e+07 inf =   0.000e+00 (182197)
*  5345: obj =   1.760950800e+07 inf =   0.000e+00 (182197)
*  5421: obj =   1.760950800e+07 inf =   0.000e+00 (182197)
*  5496: obj =   1.760950800e+07 inf =   0.000e+00 (182197)
*  5571: obj =   1.760950800e+07 inf =   0.000e+00 (182197)
*  5646: obj =   1.760950800e+07 inf =   0.000e+00 (182197)
*  5722: obj =   1.760950800e+07 inf =   0.000e+00 (182197)
*  5800: obj =   1.760950800e+07 inf =   0.000e+00 (182197)
*  5879: obj =   1.760950800e+07 inf =   0.000e+00 (182197)
*  5957: obj =   1.760950800e+07 inf =   0.000e+00 (182197)
*  6034: obj =   1.769065500e+07 inf =   0.000e+00 (51265)
*  6110: obj =   1.769065500e+07 inf =   0.000e+00 (51228)
*  6185: obj =   1.792908600e+07 inf =   0.000e+00 (51969)
*  6256: obj =   1.921338100e+07 inf =   0.000e+00 (51933)
*  6329: obj =   1.928874700e+07 inf =   0.000e+00 (64048)
*  6402: obj =   1.928874700e+07 inf =   0.000e+00 (40168)
*  6475: obj =   1.928874700e+07 inf =   0.000e+00 (40168)
*  6548: obj =   1.928874700e+07 inf =   0.000e+00 (40168)
*  6622: obj =   1.928874700e+07 inf =   0.000e+00 (40168)
*  6697: obj =   1.928874700e+07 inf =   0.000e+00 (40168)
*  6772: obj =   1.928874700e+07 inf =   0.000e+00 (40168)
*  6847: obj =   1.928874700e+07 inf =   0.000e+00 (40168)
*  6922: obj =   1.928874700e+07 inf =   0.000e+00 (40168)
*  6997: obj =   1.928874700e+07 inf =   0.000e+00 (40168)
*  7066: obj =   1.928874700e+07 inf =   0.000e+00 (91644) 1
*  7140: obj =   1.928874700e+07 inf =   0.000e+00 (44737)
*  7214: obj =   1.932324000e+07 inf =   0.000e+00 (18137)
*  7288: obj =   1.937893200e+07 inf =   0.000e+00 (65991)
*  7359: obj =   1.937893200e+07 inf =   0.000e+00 (65920)
*  7431: obj =   1.952383100e+07 inf =   0.000e+00 (77429)
*  7506: obj =   1.959845800e+07 inf =   0.000e+00 (62831)
*  7581: obj =   1.959845800e+07 inf =   0.000e+00 (62756)
*  7657: obj =   1.959845800e+07 inf =   0.000e+00 (62680)
*  7733: obj =   1.959845800e+07 inf =   0.000e+00 (62604)
*  7805: obj =   2.070919100e+07 inf =   0.000e+00 (16154)
*  7878: obj =   2.070919100e+07 inf =   0.000e+00 (16154)
*  7950: obj =   2.070919100e+07 inf =   0.000e+00 (16154)
*  8021: obj =   2.070919100e+07 inf =   0.000e+00 (28256)
*  8093: obj =   2.070919100e+07 inf =   0.000e+00 (28184)
*  8165: obj =   2.070919100e+07 inf =   0.000e+00 (28112)
*  8235: obj =   2.070919100e+07 inf =   0.000e+00 (16085)
*  8304: obj =   2.070919100e+07 inf =   0.000e+00 (16085)
*  8373: obj =   2.070919100e+07 inf =   0.000e+00 (16085)
*  8443: obj =   2.070919100e+07 inf =   0.000e+00 (16085)
*  8514: obj =   2.070919100e+07 inf =   0.000e+00 (16085)
*  8584: obj =   2.070919100e+07 inf =   0.000e+00 (16085)
*  8654: obj =   2.070919100e+07 inf =   0.000e+00 (16085)
*  8725: obj =   2.070919100e+07 inf =   0.000e+00 (16085)
*  8794: obj =   2.070919100e+07 inf =   0.000e+00 (16085)
*  8863: obj =   2.070919100e+07 inf =   0.000e+00 (16085)
*  8932: obj =   2.070919100e+07 inf =   0.000e+00 (16085)
*  9001: obj =   2.070919100e+07 inf =   0.000e+00 (16085)
*  9073: obj =   2.077805600e+07 inf =   0.000e+00 (18586)
*  9147: obj =   2.077805600e+07 inf =   0.000e+00 (18512)
*  9223: obj =   2.077805600e+07 inf =   0.000e+00 (18436)
*  9298: obj =   2.078584400e+07 inf =   0.000e+00 (17891)
*  9374: obj =   2.084789200e+07 inf =   0.000e+00 (6875)
*  9446: obj =   2.091187900e+07 inf =   0.000e+00 (18199) 1
*  9522: obj =   2.091187900e+07 inf =   0.000e+00 (18123)
*  9598: obj =   2.091187900e+07 inf =   0.000e+00 (18047)
*  9672: obj =   2.092375300e+07 inf =   0.000e+00 (4659)
*  9746: obj =   2.092375300e+07 inf =   0.000e+00 (4585)
*  9818: obj =   2.100293900e+07 inf =   0.000e+00 (7209)
*  9891: obj =   2.102473000e+07 inf =   0.000e+00 (5948)
*  9963: obj =   2.114160900e+07 inf =   0.000e+00 (11571)
* 10027: obj =   2.148234100e+07 inf =   0.000e+00 (17670) 1
* 10094: obj =   2.172996600e+07 inf =   0.000e+00 (23610)
* 10158: obj =   2.207069800e+07 inf =   0.000e+00 (23865) 1
* 10229: obj =   2.223710200e+07 inf =   0.000e+00 (9663)
* 10302: obj =   2.229040000e+07 inf =   0.000e+00 (13330)
* 10377: obj =   2.229040000e+07 inf =   0.000e+00 (13255)
* 10452: obj =   2.229040000e+07 inf =   0.000e+00 (13180)
* 10526: obj =   2.229040000e+07 inf =   0.000e+00 (13106)
* 10598: obj =   2.229040000e+07 inf =   0.000e+00 (13034)
* 10672: obj =   2.229040000e+07 inf =   0.000e+00 (12960)
* 10746: obj =   2.229040000e+07 inf =   0.000e+00 (12886)
* 10819: obj =   2.229040000e+07 inf =   0.000e+00 (12813)
* 10892: obj =   2.229040000e+07 inf =   0.000e+00 (12740)
* 10967: obj =   2.229040000e+07 inf =   0.000e+00 (12665)
* 11042: obj =   2.229040000e+07 inf =   0.000e+00 (12590)
* 11117: obj =   2.229040000e+07 inf =   0.000e+00 (12515)
* 11191: obj =   2.229040000e+07 inf =   0.000e+00 (12441)
* 11265: obj =   2.229040000e+07 inf =   0.000e+00 (12367)
* 11338: obj =   2.229040000e+07 inf =   0.000e+00 (2639)
* 11412: obj =   2.229040000e+07 inf =   0.000e+00 (2565)
* 11484: obj =   2.229040000e+07 inf =   0.000e+00 (2493)
* 11557: obj =   2.229040000e+07 inf =   0.000e+00 (2420)
* 11630: obj =   2.229040000e+07 inf =   0.000e+00 (2347)
* 11703: obj =   2.229040000e+07 inf =   0.000e+00 (2274)
* 11775: obj =   2.229040000e+07 inf =   0.000e+00 (2202)
* 11850: obj =   2.229040000e+07 inf =   0.000e+00 (2127)
* 11921: obj =   2.229040000e+07 inf =   0.000e+00 (11732)
* 11992: obj =   2.229040000e+07 inf =   0.000e+00 (11701)
* 12065: obj =   2.229040000e+07 inf =   0.000e+00 (6115)
* 12139: obj =   2.229040000e+07 inf =   0.000e+00 (6041)
* 12212: obj =   2.229040000e+07 inf =   0.000e+00 (3810)
* 12284: obj =   2.229040000e+07 inf =   0.000e+00 (1884)
* 12356: obj =   2.229040000e+07 inf =   0.000e+00 (1812)
* 12427: obj =   2.229040000e+07 inf =   0.000e+00 (1741)
* 12500: obj =   2.229040000e+07 inf =   0.000e+00 (1668)
* 12572: obj =   2.229040000e+07 inf =   0.000e+00 (1596)
* 12644: obj =   2.229040000e+07 inf =   0.000e+00 (3269)
* 12717: obj =   2.229040000e+07 inf =   0.000e+00 (3245)
* 12791: obj =   2.229040000e+07 inf =   0.000e+00 (3209)
* 12863: obj =   2.229040000e+07 inf =   0.000e+00 (3209)
* 12936: obj =   2.229040000e+07 inf =   0.000e+00 (3206)
* 13011: obj =   2.229040000e+07 inf =   0.000e+00 (3131)
* 13085: obj =   2.229040000e+07 inf =   0.000e+00 (1326)
* 13158: obj =   2.229040000e+07 inf =   0.000e+00 (1253)
* 13231: obj =   2.229040000e+07 inf =   0.000e+00 (1180)
* 13305: obj =   2.229040000e+07 inf =   0.000e+00 (1106)
* 13378: obj =   2.229040000e+07 inf =   0.000e+00 (1033)
* 13450: obj =   2.229040000e+07 inf =   0.000e+00 (961)
* 13525: obj =   2.229040000e+07 inf =   0.000e+00 (886)
* 13599: obj =   2.229040000e+07 inf =   0.000e+00 (812)
* 13672: obj =   2.229040000e+07 inf =   0.000e+00 (739)
* 13745: obj =   2.229040000e+07 inf =   0.000e+00 (666)
* 13819: obj =   2.229040000e+07 inf =   0.000e+00 (592)
* 13891: obj =   2.229040000e+07 inf =   0.000e+00 (343) 1
* 13965: obj =   2.229040000e+07 inf =   0.000e+00 (269)
* 14039: obj =   2.229040000e+07 inf =   0.000e+00 (314)
* 14113: obj =   2.229040000e+07 inf =   0.000e+00 (240)
* 14187: obj =   2.229040000e+07 inf =   0.000e+00 (107)
* 14259: obj =   2.229040000e+07 inf =   0.000e+00 (35)
Removing LP perturbation [14294]...
* 14294: obj =   2.229040000e+07 inf =   0.000e+00 (0)
OPTIMAL LP SOLUTION FOUND
Integer optimization begins...
Long-step dual simplex will be used
+ 14294: mip =     not found yet <=              +inf        (1; 0)
+ 14294: >>>>>   2.229040000e+07 <=   2.229040000e+07   0.0% (1; 0)
+ 14294: mip =   2.229040000e+07 <=     tree is empty   0.0% (0; 1)
INTEGER OPTIMAL SOLUTION FOUND
Time used:   47833.7 secs
Memory used: 4621.8 Mb (4846338142 bytes)
Writing MIP solution to 'C:\Users\LAB_C\AppData\Local\Temp\tmp6ghy_b1c.glpk.raw'...
6293737 lines were written

Problem: 
- Name: unknown
  Lower bound: 22290400.0
  Upper bound: 22290400.0
  Number of objectives: 1
  Number of constraints: 3773728
  Number of variables: 2520000
  Number of nonzeros: 8807400
  Sense: maximize
Solver: 
- Status: ok
  Termination condition: optimal
  Statistics: 
    Branch and bound: 
      Number of bounded subproblems: 1
      Number of created subproblems: 1
  Error rc: 0
  Time: 47852.78996992111
Solution: 
- number of solutions: 0
  number of solutions displayed: 0

